0000000000000000
0000001010000000
0000001000000000
0000001001000000
0000000000000000
0000000000000000
0000000000000000
0000001000000000
0000001000000000
0000001000000000
0000010000000000
0000010100000000
0000010000000000
0000010100000000
0000000000000000
0000000000000000
